
List of user-set options:

                                    Name   Value                used
                           compl_inf_tol = 1                     yes
                         constr_viol_tol = 1                     yes
                            dual_inf_tol = 1000                  yes
                           linear_solver = ma97                  yes
                              ma86_small = 1e-30                  no
                                  ma86_u = 0.0001                 no
                              ma97_order = best                  yes
                              ma97_small = 1e-30                 yes
                            ma97_switch1 = at_start              yes
                            ma97_switch2 = od_hd_reuse           yes
                                  ma97_u = 1e-06                 yes
                               ma97_umax = 0.5                   yes
                                max_iter = 1000                  yes
                    max_refinement_steps = 20                    yes
                    min_refinement_steps = 5                     yes
                                 mu_init = 1e-06                 yes
           mu_superlinear_decrease_power = 1.25                  yes
                   nlp_scaling_min_value = 1e-08                 yes
                        option_file_name = Preset_Case_380_pf.opt  yes
                             output_file = ./tmp/Preset_Case_380_pf.output  yes
                      print_user_options = yes                   yes
        required_infeasibility_reduction = 1                      no
                                     tol = 1e-08                 yes
                   warm_start_bound_frac = 1e-20                 yes
                   warm_start_bound_push = 1e-20                 yes
                   warm_start_init_point = yes                   yes
              warm_start_mult_bound_push = 1e-20                 yes
                warm_start_mult_init_max = 1e+40                 yes
             warm_start_slack_bound_frac = 1e-20                 yes
             warm_start_slack_bound_push = 1e-20                 yes

******************************************************************************
This program contains Ipopt, a library for large-scale nonlinear optimization.
 Ipopt is released as open source code under the Eclipse Public License (EPL).
         For more information visit http://projects.coin-or.org/Ipopt
******************************************************************************

This is Ipopt version 3.12.10, running with linear solver ma97.

Number of nonzeros in equality constraint Jacobian...:   123442
Number of nonzeros in inequality constraint Jacobian.:      213
Number of nonzeros in Lagrangian Hessian.............:    49069

Total number of variables............................:    31591
                     variables with only lower bounds:    12912
                variables with lower and upper bounds:    15130
                     variables with only upper bounds:        0
Total number of equality constraints.................:    31483
Total number of inequality constraints...............:       25
        inequality constraints with only lower bounds:        4
   inequality constraints with lower and upper bounds:        0
        inequality constraints with only upper bounds:       21

iter    objective    inf_pr   inf_du lg(mu)  ||d||  lg(rg) alpha_du alpha_pr  ls
   0 -5.3000886e+00 4.00e-03 1.02e+00  -6.0 0.00e+00    -  0.00e+00 0.00e+00   0
   1 -5.3044347e+00 5.95e+00 2.74e+01  -6.0 4.20e+05    -  7.53e-05 8.95e-04h  1
   2 -5.3046833e+00 5.95e+00 5.04e+01  -6.0 4.71e+03    -  9.48e-02 6.61e-04f  1
   3 -5.3044699e+00 5.95e+00 1.50e+03  -6.0 8.13e+04    -  1.13e-03 9.44e-05h  9
   4 -5.3199437e+00 1.07e+01 7.49e+02  -6.0 4.10e+03    -  6.27e-03 2.11e-01h  1
   5 -5.3638076e+00 1.16e+01 5.67e+02  -6.0 3.13e+03    -  5.78e-02 1.27e-01h  1
   6 -5.4986462e+00 1.20e+01 4.78e+03  -6.0 2.31e+03    -  1.45e-02 2.88e-01h  1
   7 -5.5163868e+00 1.06e+01 6.22e+03  -6.0 7.06e+03    -  1.85e-02 2.09e-01h  1
   8 -5.6395567e+00 1.12e+01 4.46e+03  -6.0 1.60e+03    -  3.10e-01 3.25e-01h  1
   9 -5.8076548e+00 1.28e+01 3.18e+03  -6.0 1.11e+03    -  8.41e-01 7.03e-01h  1
iter    objective    inf_pr   inf_du lg(mu)  ||d||  lg(rg) alpha_du alpha_pr  ls
  10 -5.7923937e+00 2.71e+00 1.40e+05  -6.0 4.31e+01  -4.0 9.70e-02 7.88e-01h  1
  11 -5.8409746e+00 4.12e+00 5.26e+04  -6.0 7.12e+02    -  3.43e-01 6.19e-01h  1
  12 -5.8176596e+00 5.26e-02 9.77e+02  -6.0 3.61e+00  -4.5 2.96e-03 1.00e+00h  1
  13 -5.8198977e+00 1.96e-01 1.25e+00  -6.0 1.07e+01  -5.0 1.00e+00 1.00e+00h  1
  14 -5.8254509e+00 1.23e+00 1.33e+01  -6.0 2.88e+01  -5.4 4.99e-01 1.00e+00h  1
  15 -5.8355307e+00 9.06e+00 4.34e+01  -6.0 6.37e+01  -5.9 1.00e+00 8.80e-01h  1
  16 -5.8490210e+00 3.04e+00 8.17e+01  -6.0 9.92e+01  -6.4 6.41e-01 8.86e-01h  1
  17 -5.8527490e+00 2.56e+00 6.46e+01  -6.0 1.63e+02  -6.9 1.51e-01 1.60e-01h  1
  18 -5.8547226e+00 3.45e+00 9.88e+03  -6.0 1.46e+02  -7.3 6.39e-01 1.82e-01h  1
  19 -5.8581518e+00 2.62e+00 2.09e+04  -6.0 2.28e+02  -7.8 1.00e+00 2.41e-01h  1
iter    objective    inf_pr   inf_du lg(mu)  ||d||  lg(rg) alpha_du alpha_pr  ls
  20 -5.8675185e+00 5.90e+00 8.04e+03  -6.0 1.30e+03    -  3.12e-01 4.58e-01h  1
  21 -5.8709142e+00 4.20e+00 4.79e+04  -6.0 5.56e+02    -  1.00e+00 3.64e-01h  1
  22 -5.8781385e+00 2.86e+00 2.73e+04  -6.0 4.04e+02    -  6.54e-01 1.00e+00h  1
  23 -5.8818146e+00 1.89e+00 2.54e+05  -6.0 1.33e+02    -  1.00e+00 3.39e-01h  1
  24 -5.8856471e+00 1.37e+00 5.83e+05  -6.0 1.94e+02    -  1.00e+00 2.73e-01h  1
  25r-5.8856471e+00 1.37e+00 1.00e+03  -0.1 0.00e+00    -  0.00e+00 2.07e-07R  2
  26r-5.8916757e+00 1.37e+00 1.27e+03  -0.1 1.27e+04    -  1.06e-05 2.00e-06f  1
  27 -5.8902135e+00 1.08e+00 7.25e+03  -6.0 1.18e+01    -  2.06e-01 2.11e-01h  1
  28 -5.8891641e+00 8.70e-01 2.87e+04  -6.0 4.86e+00    -  2.11e-01 1.96e-01h  1
  29 -5.8870675e+00 4.36e-01 1.44e+04  -6.0 3.35e+00    -  6.01e-01 4.99e-01h  1
iter    objective    inf_pr   inf_du lg(mu)  ||d||  lg(rg) alpha_du alpha_pr  ls
  30 -5.8852510e+00 1.47e-04 6.32e+01  -6.0 1.84e+00    -  4.31e-01 1.00e+00h  1
  31 -5.8855423e+00 4.84e-05 8.92e+01  -6.0 8.89e-01    -  8.01e-01 1.00e+00h  1
  32 -5.8864756e+00 1.46e-03 5.59e+00  -6.0 4.45e+00    -  9.62e-01 1.00e+00h  1
  33 -5.8961047e+00 1.26e-01 4.00e+01  -6.0 7.30e+01    -  8.87e-01 7.69e-01h  1
  34 -5.8959686e+00 1.29e-01 4.24e+01  -6.0 7.12e+01    -  7.28e-01 9.14e-01h  1
  35 -5.9033306e+00 4.62e-01 9.20e+01  -6.0 8.72e+02    -  2.31e-01 1.23e-01h  1
  36 -5.9037849e+00 1.24e+00 8.89e+01  -6.0 3.67e+02    -  8.82e-01 5.95e-01H  1
  37 -5.9090783e+00 2.14e-01 2.32e+03  -6.0 7.04e+01    -  6.67e-01 1.00e+00h  1
  38 -5.9146363e+00 1.45e+00 1.49e+03  -6.0 4.58e+02  -7.4 4.29e-01 4.83e-01h  1
  39 -5.9258039e+00 1.38e+00 8.81e+02  -6.0 2.19e+02    -  9.85e-01 1.00e+00h  1
iter    objective    inf_pr   inf_du lg(mu)  ||d||  lg(rg) alpha_du alpha_pr  ls
  40 -5.9296678e+00 1.09e+00 2.10e+04  -6.0 2.09e+02    -  4.56e-01 2.79e-01h  1
  41 -5.9425496e+00 1.25e+00 1.50e+04  -6.0 2.10e+02    -  9.12e-01 1.00e+00h  1
  42 -5.9466937e+00 1.01e+00 1.02e+04  -6.0 2.45e+02    -  3.75e-01 3.39e-01h  1
  43 -5.9526936e+00 1.02e+00 1.36e+05  -6.0 3.12e+02    -  5.33e-01 3.83e-01h  1
  44r-5.9526936e+00 1.02e+00 1.00e+03   0.0 0.00e+00    -  0.00e+00 2.04e-07R  2
  45r-6.0659578e+00 1.02e+00 1.52e+03   0.0 2.99e+04    -  1.16e-05 1.73e-06f  1
  46 -6.0630689e+00 9.95e-01 8.82e+05  -6.0 8.99e+00    -  5.71e-01 2.50e-02h  1
  47 -6.0139440e+00 5.62e-01 1.56e+07  -6.0 1.01e+01    -  2.50e-02 4.36e-01h  1
  48 -5.9498799e+00 1.78e-03 1.36e+04  -6.0 6.29e+00    -  4.66e-01 9.99e-01h  1
  49 -5.9500055e+00 2.31e-05 1.64e+01  -6.0 5.02e-01    -  9.74e-01 1.00e+00h  1
iter    objective    inf_pr   inf_du lg(mu)  ||d||  lg(rg) alpha_du alpha_pr  ls
  50 -5.9500981e+00 4.53e-05 5.82e+02  -6.0 7.37e+00    -  9.64e-01 8.26e-02h  1
  51 -5.9529253e+00 4.28e-01 3.30e+02  -6.0 1.59e+02  -7.0 8.30e-01 4.31e-01f  1
  52 -5.9559278e+00 3.42e-01 2.40e+02  -6.0 2.87e+02    -  1.28e-01 2.99e-01h  2
  53 -5.9535422e+00 3.89e-03 1.40e+00  -6.0 1.18e+01    -  9.14e-01 1.00e+00h  1
  54 -5.9542274e+00 4.55e-02 2.11e-01  -6.0 3.78e+01    -  9.97e-01 1.00e+00h  1
  55 -5.9540521e+00 9.17e-04 1.00e-01  -6.0 5.34e+00    -  9.82e-01 1.00e+00h  1
  56 -5.9540602e+00 4.11e-06 7.40e-05  -6.0 3.15e-01    -  1.00e+00 1.00e+00h  1
  57 -5.9540603e+00 2.84e-10 4.51e-09  -6.0 2.42e-03    -  1.00e+00 1.00e+00h  1
  58 -5.9541132e+00 6.02e-03 1.13e+02  -7.5 3.26e+01    -  9.55e-01 5.66e-01h  1
  59 -5.9541360e+00 3.73e-03 1.66e+01  -7.5 1.48e+01    -  1.00e+00 8.68e-01h  1
iter    objective    inf_pr   inf_du lg(mu)  ||d||  lg(rg) alpha_du alpha_pr  ls
  60 -5.9541365e+00 6.06e-05 2.74e-02  -7.5 1.85e+00    -  1.00e+00 1.00e+00h  1
  61 -5.9541365e+00 2.88e-10 6.54e-10  -7.5 1.96e-03    -  1.00e+00 1.00e+00h  1
  62 -5.9541381e+00 1.49e-05 6.33e-01  -9.0 1.07e+00    -  9.28e-01 8.59e-01h  1
  63 -5.9541384e+00 4.03e-07 3.22e-01  -9.0 1.51e-01    -  9.12e-01 1.00e+00f  1
  64 -5.9541384e+00 2.84e-10 1.93e-08  -9.0 5.34e-05    -  1.00e+00 1.00e+00h  1
  65 -5.9541384e+00 2.85e-10 3.61e-10  -9.0 8.36e-06    -  1.00e+00 1.00e+00h  1

Number of Iterations....: 65

                                   (scaled)                 (unscaled)
Objective...............:  -4.6516705950178192e+00   -5.9541383616228085e+00
Dual infeasibility......:   3.6122540539534984e-10    4.6236851890604780e-10
Constraint violation....:   2.8485677965733869e-10    2.8485677965733869e-10
Complementarity.........:   9.2483555873380750e-10    1.1837895151792735e-09
Overall NLP error.......:   9.2483555873380750e-10    1.1837895151792735e-09


Number of objective function evaluations             = 84
Number of objective gradient evaluations             = 66
Number of equality constraint evaluations            = 84
Number of inequality constraint evaluations          = 84
Number of equality constraint Jacobian evaluations   = 68
Number of inequality constraint Jacobian evaluations = 68
Number of Lagrangian Hessian evaluations             = 65
Total CPU secs in IPOPT (w/o function evaluations)   =    118.218
Total CPU secs in NLP function evaluations           =      2.527

EXIT: Optimal Solution Found.
